(declare-const delta_i Int)
(declare-const delta_j Int)
(assert (exists
         ((|j'?1| Int) (|S1,0?2| Real) (|i'?3| Int) (KSUM1?4 Int)
            (|K1,0?5| Int) (K?6 Int) (|S1,0?7| Real) (|i'?8| Int)
            (KSUM1?9 Int) (|K1,0?10| Int) (K?11 Int) (|i'?12| Int) (j?13 Int)
            (ni?14 Int) (i?15 Int) (nj?16 Int))
         (and (< (- j?13) 0) (<= (- i?15) 0) (< (- nj?16) 0)
                (< (+ (- nj?16) j?13) 0) (<= (- K?11) 0) (<= (- |K1,0?10|) 0)
                (= (+ |K1,0?10| (- K?11)) 0) (<= (+ KSUM1?9 (- K?11)) 0)
                (= (+ (- |S1,0?7|) |i'?8| (- |K1,0?10|)) 0)
                (= (+ (- KSUM1?9) |K1,0?10|) 0) (= |S1,0?7| 0)
                (or (and (= K?11 0) (= (- |i'?8|) 0))
                      (and (<= (+ (- K?11) 1) 0) (<= (+ (- ni?14) 1) 0)
                             (<= (+ (- ni?14) |i'?8|) 0)
                             (<= (+ (- |i'?8|) 1) 0)))
                (= (+ |i'?8| (- K?11)) 0) (<= (- K?11) 0) (<= (- |i'?8|) 0)
                (<= (+ ni?14 (- |i'?8|)) 0) (<= (- K?6) 0)
                (<= (- |K1,0?5|) 0) (= (+ |K1,0?5| (- K?6)) 0)
                (<= (+ KSUM1?4 (- K?6)) 0)
                (= (+ (- |S1,0?2|) |i'?3| (- |K1,0?5|)) 0)
                (= (+ (- KSUM1?4) |K1,0?5|) 0) (= |S1,0?2| 0)
                (or (and (= K?6 0) (= (- |i'?3|) 0))
                      (and (<= (+ (- K?6) 1) 0) (<= (+ (- ni?14) 1) 0)
                             (<= (+ |i'?3| (- ni?14)) 0)
                             (<= (+ (- |i'?3|) 1) 0)))
                (= (+ |i'?3| (- K?6)) 0) (<= (- K?6) 0) (<= (- |i'?3|) 0)
                (<= (+ (- |i'?3|) ni?14) 0) (= (+ |j'?1| (- j?13) -1) 0)
                (= (+ |i'?12| (- |i'?3|)) 0) (= delta_i (+ |i'?12| (- i?15)))
                (= delta_j (+ |j'?1| (- j?13))))))
(check-sat)
